.Version 8.2.2 of ABINIT

 ABINIT is a project of the Universite Catholique de Louvain,
 Corning Inc. and other collaborators, see ~abinit/doc/developers/contributors.txt .
 Please read ~abinit/doc/users/acknowledgments.html for suggested
 acknowledgments of the ABINIT effort.

.Starting date : Mon 17 Jul 2017.
- ( at 15h48 )

- input  file    -> BN1.inp
- output file    -> BN1.out
- root for input  files -> BN1i
- root for output files -> BN1o

 Symmetries : space group Am m 2 (# 38); Bravais oC (1-face-center ortho.)
     intxc =       0    ionmov =       0      iscf =       7    lmnmax =       2
     lnmax =       2     mgfft =     150  mpssoang =       2    mqgrid =    7398
     natom =       8  nloc_mem =       1    nspden =       1   nspinor =       1
    nsppol =       1      nsym =       4    n1xccc =       0    ntypat =       3
    occopt =       1   xclevel =       2
-    mband =          17        mffmem =           1         mkmem =           1
       mpw =       14680          nfft =      540000          nkpt =           1
  Rough estimation (10% accuracy) of disk space for files :

------------- Echo of variables that govern the present computation ------------
-
- outvars: echo of selected default values
-   iomode0 =  0 , fftalg0 =112 , wfoptalg0 =  0
-
- outvars: echo of global parameters not present in the input file
-  max_nthreads =    4
-
 -outvars: echo values of preprocessed input variables --------
            acell      1.8897261250E+00  1.8897261250E+00  1.8897261250E+00 Bohr
              amu      1.08110000E+01  1.20110000E+01  1.40067400E+01
             ecut      5.00000000E+01 Hartree
-          fftalg         112
           istwfk        2
              ixc          11
         kptrlatt        1    0    0      0    1    0      0    0    1
          kptrlen      9.29560873E+00
P           mkmem           1
            natom           8
            nband          17
            ngfft          60      60     150
             nkpt           1
            nstep        1000
             nsym           4
           ntypat           3
              occ      2.000000  2.000000  2.000000  2.000000  2.000000  2.000000
                       2.000000  2.000000  2.000000  2.000000  2.000000  2.000000
                       2.000000  2.000000  2.000000  2.000000  0.000000
            rprim      4.9190243000E+00  0.0000000000E+00  0.0000000000E+00
                       2.4595121500E+00  4.2600000056E+00  0.0000000000E+00
                       0.0000000000E+00  0.0000000000E+00  1.2297560730E+01
          spgroup          38
           symrel      1  0  0   0  1  0   0  0  1       0  1  0   1  0  0   0  0 -1
                       1  0  0   0  1  0   0  0 -1       0  1  0   1  0  0   0  0  1
           tolwfr      1.00000000E-05
            typat      1  2  2  2  2  2  2  3
           xangst      6.1487803493E-01  3.5499999899E-01  0.0000000000E+00
                       1.2297560699E+00  1.4199999959E+00  0.0000000000E+00
                       1.8446341048E+00  3.5499999899E-01  0.0000000000E+00
                       1.8446341048E+00  1.7749999949E+00  0.0000000000E+00
                       2.4595121397E+00  7.0999999797E-01  0.0000000000E+00
                       2.4595121397E+00  1.4199999959E+00  0.0000000000E+00
                       3.0743901747E+00  1.7749999949E+00  0.0000000000E+00
                       1.2297560699E+00  7.0999999797E-01  0.0000000000E+00
            xcart      1.1619510911E+00  6.7085277526E-01  0.0000000000E+00
                       2.3239021823E+00  2.6834111010E+00  0.0000000000E+00
                       3.4858532734E+00  6.7085277526E-01  0.0000000000E+00
                       3.4858532734E+00  3.3542638763E+00  0.0000000000E+00
                       4.6478043646E+00  1.3417055505E+00  0.0000000000E+00
                       4.6478043646E+00  2.6834111010E+00  0.0000000000E+00
                       5.8097554557E+00  3.3542638763E+00  0.0000000000E+00
                       2.3239021823E+00  1.3417055505E+00  0.0000000000E+00
             xred      8.3333333333E-02  8.3333333333E-02  0.0000000000E+00
                       8.3333333333E-02  3.3333333333E-01  0.0000000000E+00
                       3.3333333333E-01  8.3333333333E-02  0.0000000000E+00
                       1.6666666667E-01  4.1666666667E-01  0.0000000000E+00
                       4.1666666667E-01  1.6666666667E-01  0.0000000000E+00
                       3.3333333333E-01  3.3333333333E-01  0.0000000000E+00
                       4.1666666667E-01  4.1666666667E-01  0.0000000000E+00
                       1.6666666667E-01  1.6666666667E-01  0.0000000000E+00
            znucl        5.00000    6.00000    7.00000

 chkinp: Checking input parameters for consistency.

== DATASET  1 ==================================================================
-   nproc =    1

 Real(R)+Recip(G) space primitive vectors, cartesian coordinates (Bohr,Bohr^-1):
 R(1)=  9.2956087  0.0000000  0.0000000  G(1)=  0.1075777 -0.0621100  0.0000000
 R(2)=  4.6478044  8.0502333  0.0000000  G(2)=  0.0000000  0.1242200  0.0000000
 R(3)=  0.0000000  0.0000000 23.2390218  G(3)=  0.0000000  0.0000000  0.0430311
 Unit cell volume ucvol=  1.7390183E+03 bohr^3
 Angles (23,13,12)=  9.00000000E+01  9.00000000E+01  6.00000000E+01 degrees

 getcut: wavevector=  0.0000  0.0000  0.0000  ngfft=  60  60 150
         ecut(hartree)=     50.000   => boxcut(ratio)=   2.02779

--- Pseudopotential description ------------------------------------------------
- pspini: atom type   1  psp file is psppar.B
- pspatm: opening atomic psp file    psppar.B
- Goedecker pseudopotential for B
-  5.00000   3.00000     70301                znucl, zion, pspdat
   10   11    1    2      2001   0.00000      pspcod,pspxc,lmax,lloc,mmax,r2well
 rloc=   0.4189914
 cc(1:2)=  -5.8594617   0.9037564
 for angular momentum l =  0 r(l) =   0.3713205
   h11, h12, h13 =   6.2972802   0.0000000   0.0000000
        h22, h23 =               0.0000000   0.0000000
             h33 =                           0.0000000
 for angular momentum l =  1 r(l) =   0.3645631
   h11, h12, h13 =   0.0000000   0.0000000   0.0000000
        h22, h23 =               0.0000000   0.0000000
             h33 =                           0.0000000
   k11, k12, k13 =   0.0008550   0.0000000   0.0000000
        k22, k23 =               0.0000000   0.0000000
             k33 =                           0.0000000
-  Local part computed in reciprocal space.

 pspatm : COMMENT -
  the projectors are not normalized,
  so that the KB energies are not consistent with
  definition in PRB44, 8503 (1991).
  However, this does not influence the results obtained hereafter.
 pspatm: epsatm=   -0.33797878
         --- l  ekb(1:nproj) -->
             0    1.142890
             1    0.000000
 pspatm: atomic psp has been read  and splines computed

- pspini: atom type   2  psp file is psppar.C
- pspatm: opening atomic psp file    psppar.C
- Goedecker pseudopotential for C
-  6.00000   4.00000     70301                znucl, zion, pspdat
   10   11    1    2      2001   0.00000      pspcod,pspxc,lmax,lloc,mmax,r2well
 rloc=   0.3384712
 cc(1:2)=  -8.8036740   1.3392108
 for angular momentum l =  0 r(l) =   0.3025757
   h11, h12, h13 =   9.6224867   0.0000000   0.0000000
        h22, h23 =               0.0000000   0.0000000
             h33 =                           0.0000000
 for angular momentum l =  1 r(l) =   0.2915069
   h11, h12, h13 =   0.0000000   0.0000000   0.0000000
        h22, h23 =               0.0000000   0.0000000
             h33 =                           0.0000000
   k11, k12, k13 =   0.0020732   0.0000000   0.0000000
        k22, k23 =               0.0000000   0.0000000
             k33 =                           0.0000000
-  Local part computed in reciprocal space.

[...]

- pspini: atom type   3  psp file is psppar.N
- pspatm: opening atomic psp file    psppar.N
- Goedecker pseudopotential for N
-  7.00000   5.00000     70301                znucl, zion, pspdat
   10   11    1    2      2001   0.00000      pspcod,pspxc,lmax,lloc,mmax,r2well
 rloc=   0.2837905
 cc(1:2)= -12.4152256   1.8680959
 for angular momentum l =  0 r(l) =   0.2554050
   h11, h12, h13 =  13.6302626   0.0000000   0.0000000
        h22, h23 =               0.0000000   0.0000000
             h33 =                           0.0000000
 for angular momentum l =  1 r(l) =   0.2454945
   h11, h12, h13 =   0.0000000   0.0000000   0.0000000
        h22, h23 =               0.0000000   0.0000000
             h33 =                           0.0000000
   k11, k12, k13 =   0.0041475   0.0000000   0.0000000
        k22, k23 =               0.0000000   0.0000000
             k33 =                           0.0000000
-  Local part computed in reciprocal space.

 pspatm : COMMENT -
  the projectors are not normalized,
  so that the KB energies are not consistent with
  definition in PRB44, 8503 (1991).
  However, this does not influence the results obtained hereafter.
 pspatm: epsatm=    0.07842924
         --- l  ekb(1:nproj) -->
             0    0.805003
             1    0.000000
 pspatm: atomic psp has been read  and splines computed

  -1.66781765E+01                                ecore*ucvol(ha*bohr**3)

_setup2: Arith. and geom. avg. npw (full set) are   29359.000   29359.000

     iter   Etot(hartree)      deltaE(h)  residm     vres2
 ETOT  1  -27.923869190890    -2.792E+01 1.080E+00 3.346E+04
 ETOT  2  -31.645196518243    -3.721E+00 1.026E-02 8.568E+03
 ETOT  3  -32.305079934560    -6.599E-01 1.841E-02 3.754E+03
 ETOT  4  -32.377264834538    -7.218E-02 5.484E-04 1.940E+03
 ETOT  5  -32.384386837040    -7.122E-03 6.529E-05 1.251E+03
 ETOT  6  -32.386051410853    -1.665E-03 4.499E-05 8.575E+02
 ETOT  7  -32.386376524616    -3.251E-04 1.293E-04 6.489E+02
 ETOT  8  -32.261044208297     1.253E-01 6.483E-05 3.850E+03
 ETOT  9  -32.385059449301    -1.240E-01 1.667E-05 6.795E+02
 ETOT 10  -32.385117439611    -5.799E-05 9.647E-06 5.537E+02

 At SCF step   10   max residual=  9.65E-06 < tolwfr=  1.00E-05 =>converged.

 Cartesian components of stress tensor (hartree/bohr^3)
  sigma(1 1)= -1.75888254E-02  sigma(3 2)=  0.00000000E+00
  sigma(2 2)= -1.46852604E-02  sigma(3 1)=  0.00000000E+00
  sigma(3 3)= -1.03897772E-04  sigma(2 1)= -2.51456104E-03

 Integrated electronic density in atomic spheres:
 Atom  Sphere_radius  Integrated_density
    1        2.00000          7.50742880
    2        2.00000         12.18981198
    3        2.00000         12.18981198
    4        2.00000         11.71795509
    5        2.00000         11.71795509
    6        2.00000         12.78121204
    7        2.00000          7.84055892
    8        2.00000         12.85384506

 ----iterations are completed or convergence reached----

 Mean square residual over all n,k,spin=   4.4630E-06; max=  9.6468E-06
 reduced coordinates (array xred) for    8 atoms
       0.083333333333      0.083333333333      0.000000000000
       0.083333333333      0.333333333333      0.000000000000
       0.333333333333      0.083333333333      0.000000000000
       0.166666666667      0.416666666667      0.000000000000
       0.416666666667      0.166666666667      0.000000000000
       0.333333333333      0.333333333333      0.000000000000
       0.416666666667      0.416666666667      0.000000000000
       0.166666666667      0.166666666667      0.000000000000
 rms dE/dt=  2.3547E+01; max dE/dt=  4.3024E+01; dE/dt below (all hartree)
    1      36.981765917056     36.981765917056      0.000000000000
    2      43.023804219119     -3.766483624458      0.000000000000
    3      -3.766483624458     43.023804219119      0.000000000000
    4       0.780313365604    -43.474631321013     -0.000000000000
    5     -43.474631321013      0.780313365604      0.000000000000
    6      -2.693874336130     -2.693874336130      0.000000000000
    7     -38.319002550526    -38.319002550526      0.000000000000
    8       7.388696529653      7.388696529653      0.000000000000

 cartesian coordinates (angstrom) at end:
    1      0.61487803493165     0.35499999898633     0.00000000000000
    2      1.22975606986281     1.41999999594447     0.00000000000000
    3      1.84463410479397     0.35499999898633     0.00000000000000
    4      1.84463410479815     1.77499999493378     0.00000000000000
    5      2.45951213973004     0.70999999797436     0.00000000000000
    6      2.45951213972513     1.41999999594447     0.00000000000000
    7      3.07439017466194     1.77499999493378     0.00000000000000
    8      1.22975606986625     0.70999999797436     0.00000000000000

 cartesian forces (hartree/bohr) at end:
    1     -3.97948036216289    -2.29755405833117     0.00000000000000
    2     -4.62946881134235     3.13946460243732    -0.00000000000000
    3      0.40412169431966    -5.57896989787168     0.00000000000000
    4     -0.08501216689658     5.44826753646147     0.00000000000000
    5      4.67583200973812    -2.79775646439398     0.00000000000000
    6      0.28873287798964     0.16670000483133     0.00000000000000
    7      4.12120143946678     2.37937676046248     0.00000000000000
    8     -0.79592668111239    -0.45952848359576     0.00000000000000
 frms,max,avg= 2.6352949E+00 5.5789699E+00   1.068E-03  6.165E-04  0.000E+00 h/b

 cartesian forces (eV/Angstrom) at end:
    1   -204.63309065535697  -118.14496997505769     0.00000000000000
    2   -238.05683776327950   161.43774717628432    -0.00000000000000
    3     20.78077130265463  -286.88214263587645     0.00000000000000
    4     -4.37150101826374   280.16115754806748     0.00000000000000
    5    240.44092908098008  -143.86640970852233     0.00000000000000
    6     14.84724029765637     8.57205818258093     0.00000000000000
    7    211.92068084814792   122.35246213461214     0.00000000000000
    8    -40.92819209253875   -23.62990272208842     0.00000000000000
 frms,max,avg= 1.3551230E+02 2.8688214E+02   5.491E-02  3.170E-02  0.000E+00 e/A
 length scales=  1.889726124993  1.889726124993  1.889726124993 bohr
              =  0.999999995823  0.999999995823  0.999999995823 angstroms
 prteigrs : about to open file BN1o_EIG
 Fermi (or HOMO) energy (hartree) =   0.00760   Average Vxc (hartree)=  -0.11225
 Eigenvalues (hartree) for nkpt=   1  k points:
 kpt#   1, nband= 17, wtk=  1.00000, kpt=  0.0000  0.0000  0.0000 (reduced coord)
  -1.65534   -1.13189   -1.08872   -1.05338   -0.97672   -0.91021   -0.77729   -0.65379
  -0.64412   -0.50102   -0.48602   -0.26711   -0.19554   -0.18947   -0.06858    0.00760
   0.01304

 Components of total free energy (in Hartree) :

    Kinetic energy  =  6.82169988956382E+01
    Hartree energy  =  1.78990918501191E+02
    XC energy       = -1.88117590879411E+01
    Ewald energy    =  1.60079515844032E+02
    PspCore energy  = -9.59057004605445E-03
    Loc. psp. energy= -4.29127129208499E+02
    NL   psp  energy=  8.27592818601320E+00
    >>>>>>>>> Etotal= -3.23851174396112E+01

 Other information on the energy :
    Total energy(eV)= -8.81243862000442E+02 ; Band energy (Ha)=  -2.1183200156E+01

 Cartesian components of stress tensor (hartree/bohr^3)
  sigma(1 1)= -1.75888254E-02  sigma(3 2)=  0.00000000E+00
  sigma(2 2)= -1.46852604E-02  sigma(3 1)=  0.00000000E+00
  sigma(3 3)= -1.03897772E-04  sigma(2 1)= -2.51456104E-03

-Cartesian components of stress tensor (GPa)         [Pressure=  3.1753E+02 GPa]
- sigma(1 1)= -5.17481021E+02  sigma(3 2)=  0.00000000E+00
- sigma(2 2)= -4.32055204E+02  sigma(3 1)=  0.00000000E+00
- sigma(3 3)= -3.05677748E+00  sigma(2 1)= -7.39809277E+01

== END DATASET(S) ==============================================================

 -outvars: echo values of variables after computation  --------
            acell      1.8897261250E+00  1.8897261250E+00  1.8897261250E+00 Bohr
              amu      1.08110000E+01  1.20110000E+01  1.40067400E+01
             ecut      5.00000000E+01 Hartree
           etotal     -3.2385117440E+01
            fcart     -3.9794803622E+00 -2.2975540583E+00  7.2134250705E-31
                      -4.6294688113E+00  3.1394646024E+00 -5.2339763673E-30
                       4.0412169432E-01 -5.5789698979E+00  7.2134250705E-31
                      -8.5012166897E-02  5.4482675365E+00  9.0592132503E-31
                       4.6758320097E+00 -2.7977564644E+00  7.2134250705E-31
                       2.8873287799E-01  1.6670000483E-01  7.2134250705E-31
                       4.1212014395E+00  2.3793767605E+00  7.2134250705E-31
                      -7.9592668111E-01 -4.5952848360E-01  7.2134250705E-31
-          fftalg         112
           istwfk        2
              ixc          11
         kptrlatt        1    0    0      0    1    0      0    0    1
          kptrlen      9.29560873E+00
P           mkmem           1
            natom           8
            nband          17
            ngfft          60      60     150
             nkpt           1
            nstep        1000
             nsym           4
           ntypat           3
              occ      2.000000  2.000000  2.000000  2.000000  2.000000  2.000000
                       2.000000  2.000000  2.000000  2.000000  2.000000  2.000000
                       2.000000  2.000000  2.000000  2.000000  0.000000
            rprim      4.9190243000E+00  0.0000000000E+00  0.0000000000E+00
                       2.4595121500E+00  4.2600000056E+00  0.0000000000E+00
                       0.0000000000E+00  0.0000000000E+00  1.2297560730E+01
          spgroup          38
           strten     -1.7588825373E-02 -1.4685260381E-02 -1.0389777241E-04
                       0.0000000000E+00  0.0000000000E+00 -2.5145610445E-03
           symrel      1  0  0   0  1  0   0  0  1       0  1  0   1  0  0   0  0 -1
                       1  0  0   0  1  0   0  0 -1       0  1  0   1  0  0   0  0  1
           tolwfr      1.00000000E-05
            typat      1  2  2  2  2  2  2  3
           xangst      6.1487803493E-01  3.5499999899E-01  0.0000000000E+00
                       1.2297560699E+00  1.4199999959E+00  0.0000000000E+00
                       1.8446341048E+00  3.5499999899E-01  0.0000000000E+00
                       1.8446341048E+00  1.7749999949E+00  0.0000000000E+00
                       2.4595121397E+00  7.0999999797E-01  0.0000000000E+00
                       2.4595121397E+00  1.4199999959E+00  0.0000000000E+00
                       3.0743901747E+00  1.7749999949E+00  0.0000000000E+00
                       1.2297560699E+00  7.0999999797E-01  0.0000000000E+00
            xcart      1.1619510911E+00  6.7085277526E-01  0.0000000000E+00
                       2.3239021823E+00  2.6834111010E+00  0.0000000000E+00
                       3.4858532734E+00  6.7085277526E-01  0.0000000000E+00
                       3.4858532734E+00  3.3542638763E+00  0.0000000000E+00
                       4.6478043646E+00  1.3417055505E+00  0.0000000000E+00
                       4.6478043646E+00  2.6834111010E+00  0.0000000000E+00
                       5.8097554557E+00  3.3542638763E+00  0.0000000000E+00
                       2.3239021823E+00  1.3417055505E+00  0.0000000000E+00
             xred      8.3333333333E-02  8.3333333333E-02  0.0000000000E+00
                       8.3333333333E-02  3.3333333333E-01  0.0000000000E+00
                       3.3333333333E-01  8.3333333333E-02  0.0000000000E+00
                       1.6666666667E-01  4.1666666667E-01  0.0000000000E+00
                       4.1666666667E-01  1.6666666667E-01  0.0000000000E+00
                       3.3333333333E-01  3.3333333333E-01  0.0000000000E+00
                       4.1666666667E-01  4.1666666667E-01  0.0000000000E+00
                       1.6666666667E-01  1.6666666667E-01  0.0000000000E+00
            znucl        5.00000    6.00000    7.00000

- Timing analysis has been suppressed with timopt=0

 Suggested references for the acknowledgment of ABINIT usage.

 Calculation completed.
.Delivered   0 WARNINGs and   4 COMMENTs to log file.