.Version 8.2.2 of ABINIT

 ABINIT is a project of the Universite Catholique de Louvain,
 Corning Inc. and other collaborators, see ~abinit/doc/developers/contributors.txt .
 Please read ~abinit/doc/users/acknowledgments.html for suggested
 acknowledgments of the ABINIT effort.

.Starting date : Mon 17 Jul 2017.
- ( at 15h51 )

- input  file    -> dynm.inp
- output file    -> dynm.out
- root for input  files -> dynmi
- root for output files -> dynmo

 Symmetries : space group Am m 2 (# 38); Bravais oC (1-face-center ortho.)
     intxc =       0      iscf =       7    lmnmax =       2     lnmax =       2
     mgfft =     150  mpssoang =       2    mqgrid =    7398     natom =       8
  nloc_mem =       1    nspden =       1   nspinor =       1    nsppol =       1
      nsym =       4    n1xccc =       0    ntypat =       3    occopt =       1
   xclevel =       2
-    mband =          17        mffmem =           1         mkmem =           1
-   mkqmem =           1        mk1mem =           1           mpw =       29359
      nfft =      540000          nkpt =           1
  Rough estimation (10% accuracy) of disk space for files :

------------- Echo of variables that govern the present computation ------------
-
- outvars: echo of selected default values
-   iomode0 =  0 , fftalg0 =112 , wfoptalg0 =  0
-
- outvars: echo of global parameters not present in the input file
-  max_nthreads =    4
-
 -outvars: echo values of preprocessed input variables --------
            acell      1.8897261250E+00  1.8897261250E+00  1.8897261250E+00 Bohr
              amu      1.08110000E+01  1.20110000E+01  1.40067400E+01
             ecut      5.00000000E+01 Hartree
-          fftalg         112
           irdwfk           1
           istwfk        1
              ixc          11
           kptopt           2
         kptrlatt        1    0    0      0    1    0      0    0    1
          kptrlen      9.29560873E+00
P           mkmem           1
P          mkqmem           1
P          mk1mem           1
            natom           8
            nband          17
            ngfft          60      60     150
             nkpt           1
             nqpt           1
            nstep        1000
             nsym           4
           ntypat           3
              occ      2.000000  2.000000  2.000000  2.000000  2.000000  2.000000
                       2.000000  2.000000  2.000000  2.000000  2.000000  2.000000
                       2.000000  2.000000  2.000000  2.000000  0.000000
        optdriver           1
          rfatpol           1       2
            rfdir           1       1       1
           rfphon           1
            rprim      4.9190243000E+00  0.0000000000E+00  0.0000000000E+00
                       2.4595121500E+00  4.2600000056E+00  0.0000000000E+00
                       0.0000000000E+00  0.0000000000E+00  1.2297560730E+01
          spgroup          38
           symrel      1  0  0   0  1  0   0  0  1       0  1  0   1  0  0   0  0 -1
                       1  0  0   0  1  0   0  0 -1       0  1  0   1  0  0   0  0  1
           tolwfr      1.00000000E-05
            typat      1  2  2  2  2  2  2  3
           xangst      6.1487803493E-01  3.5499999899E-01  0.0000000000E+00
                       1.2297560699E+00  1.4199999959E+00  0.0000000000E+00
                       1.8446341048E+00  3.5499999899E-01  0.0000000000E+00
                       1.8446341048E+00  1.7749999949E+00  0.0000000000E+00
                       2.4595121397E+00  7.0999999797E-01  0.0000000000E+00
                       2.4595121397E+00  1.4199999959E+00  0.0000000000E+00
                       3.0743901747E+00  1.7749999949E+00  0.0000000000E+00
                       1.2297560699E+00  7.0999999797E-01  0.0000000000E+00
            xcart      1.1619510911E+00  6.7085277526E-01  0.0000000000E+00
                       2.3239021823E+00  2.6834111010E+00  0.0000000000E+00
                       3.4858532734E+00  6.7085277526E-01  0.0000000000E+00
                       3.4858532734E+00  3.3542638763E+00  0.0000000000E+00
                       4.6478043646E+00  1.3417055505E+00  0.0000000000E+00
                       4.6478043646E+00  2.6834111010E+00  0.0000000000E+00
                       5.8097554557E+00  3.3542638763E+00  0.0000000000E+00
                       2.3239021823E+00  1.3417055505E+00  0.0000000000E+00
             xred      8.3333333333E-02  8.3333333333E-02  0.0000000000E+00
                       8.3333333333E-02  3.3333333333E-01  0.0000000000E+00
                       3.3333333333E-01  8.3333333333E-02  0.0000000000E+00
                       1.6666666667E-01  4.1666666667E-01  0.0000000000E+00
                       4.1666666667E-01  1.6666666667E-01  0.0000000000E+00
                       3.3333333333E-01  3.3333333333E-01  0.0000000000E+00
                       4.1666666667E-01  4.1666666667E-01  0.0000000000E+00
                       1.6666666667E-01  1.6666666667E-01  0.0000000000E+00
            znucl        5.00000    6.00000    7.00000

 chkinp: Checking input parameters for consistency.

== DATASET  1 ==================================================================
-   nproc =    1

 Real(R)+Recip(G) space primitive vectors, cartesian coordinates (Bohr,Bohr^-1):
 R(1)=  9.2956087  0.0000000  0.0000000  G(1)=  0.1075777 -0.0621100  0.0000000
 R(2)=  4.6478044  8.0502333  0.0000000  G(2)=  0.0000000  0.1242200  0.0000000
 R(3)=  0.0000000  0.0000000 23.2390218  G(3)=  0.0000000  0.0000000  0.0430311
 Unit cell volume ucvol=  1.7390183E+03 bohr^3
 Angles (23,13,12)=  9.00000000E+01  9.00000000E+01  6.00000000E+01 degrees
 setup1 : take into account q-point for computing boxcut.

 getcut: wavevector=  0.0000  0.0000  0.0000  ngfft=  60  60 150
         ecut(hartree)=     50.000   => boxcut(ratio)=   2.02779

--- Pseudopotential description ------------------------------------------------
- pspini: atom type   1  psp file is psppar.B
- pspatm: opening atomic psp file    psppar.B
- Goedecker pseudopotential for B
-  5.00000   3.00000     70301                znucl, zion, pspdat
   10   11    1    2      2001   0.00000      pspcod,pspxc,lmax,lloc,mmax,r2well
 rloc=   0.4189914
 cc(1:2)=  -5.8594617   0.9037564
 for angular momentum l =  0 r(l) =   0.3713205
   h11, h12, h13 =   6.2972802   0.0000000   0.0000000
        h22, h23 =               0.0000000   0.0000000
             h33 =                           0.0000000
 for angular momentum l =  1 r(l) =   0.3645631
   h11, h12, h13 =   0.0000000   0.0000000   0.0000000
        h22, h23 =               0.0000000   0.0000000
             h33 =                           0.0000000
   k11, k12, k13 =   0.0008550   0.0000000   0.0000000
        k22, k23 =               0.0000000   0.0000000
             k33 =                           0.0000000
-  Local part computed in reciprocal space.

 pspatm : COMMENT -
  the projectors are not normalized,
  so that the KB energies are not consistent with
  definition in PRB44, 8503 (1991).
  However, this does not influence the results obtained hereafter.
 pspatm: epsatm=   -0.33797878
         --- l  ekb(1:nproj) -->
             0    1.142890
             1    0.000000
 pspatm: atomic psp has been read  and splines computed

- pspini: atom type   2  psp file is psppar.C
- pspatm: opening atomic psp file    psppar.C
- Goedecker pseudopotential for C
-  6.00000   4.00000     70301                znucl, zion, pspdat
   10   11    1    2      2001   0.00000      pspcod,pspxc,lmax,lloc,mmax,r2well
 rloc=   0.3384712
 cc(1:2)=  -8.8036740   1.3392108
 for angular momentum l =  0 r(l) =   0.3025757
   h11, h12, h13 =   9.6224867   0.0000000   0.0000000
        h22, h23 =               0.0000000   0.0000000
             h33 =                           0.0000000
 for angular momentum l =  1 r(l) =   0.2915069
   h11, h12, h13 =   0.0000000   0.0000000   0.0000000
        h22, h23 =               0.0000000   0.0000000
             h33 =                           0.0000000
   k11, k12, k13 =   0.0020732   0.0000000   0.0000000
        k22, k23 =               0.0000000   0.0000000
             k33 =                           0.0000000
-  Local part computed in reciprocal space.

[...]

- pspini: atom type   3  psp file is psppar.N
- pspatm: opening atomic psp file    psppar.N
- Goedecker pseudopotential for N
-  7.00000   5.00000     70301                znucl, zion, pspdat
   10   11    1    2      2001   0.00000      pspcod,pspxc,lmax,lloc,mmax,r2well
 rloc=   0.2837905
 cc(1:2)= -12.4152256   1.8680959
 for angular momentum l =  0 r(l) =   0.2554050
   h11, h12, h13 =  13.6302626   0.0000000   0.0000000
        h22, h23 =               0.0000000   0.0000000
             h33 =                           0.0000000
 for angular momentum l =  1 r(l) =   0.2454945
   h11, h12, h13 =   0.0000000   0.0000000   0.0000000
        h22, h23 =               0.0000000   0.0000000
             h33 =                           0.0000000
   k11, k12, k13 =   0.0041475   0.0000000   0.0000000
        k22, k23 =               0.0000000   0.0000000
             k33 =                           0.0000000
-  Local part computed in reciprocal space.

 pspatm : COMMENT -
  the projectors are not normalized,
  so that the KB energies are not consistent with
  definition in PRB44, 8503 (1991).
  However, this does not influence the results obtained hereafter.
 pspatm: epsatm=    0.07842924
         --- l  ekb(1:nproj) -->
             0    0.805003
             1    0.000000
 pspatm: atomic psp has been read  and splines computed

  -1.66781765E+01                                ecore*ucvol(ha*bohr**3)

-inwffil : will read wavefunctions from disk file dynmi_WFK

 ==>  initialize data related to q vector <==

 The list of irreducible perturbations for this q vector is:
    1)    idir= 1    ipert=   1
    2)    idir= 3    ipert=   1
    3)    idir= 1    ipert=   2
    4)    idir= 2    ipert=   2
    5)    idir= 3    ipert=   2

 The perturbation idir=   2  ipert=   1 is
 symmetric of a previously calculated perturbation.
 So, its SCF calculation is not needed.

 Perturbation wavevector (in red.coord.)   0.000000  0.000000  0.000000
 Perturbation : displacement of atom   1   along direction   1
 Found     2 symmetries that leave the perturbation invariant.
 symkpt : not enough symmetry to change the number of k points.

[...]

 Initialisation of the first-order wave-functions :
  ireadwf=   0

     iter   2DEtotal(Ha)        deltaE(Ha) residm    vres2
-ETOT  1   1010.6381894388     -1.258E+03 5.169E+00 2.090E+06
 ETOT  2   843.68485852804     -1.670E+02 2.346E+00 2.469E+06
 ETOT  3   771.37687364065     -7.231E+01 7.300E-02 1.508E+07
 ETOT  4   747.47975787453     -2.390E+01 3.056E-02 1.801E+07
 ETOT  5   747.47266653927     -7.091E-03 9.700E-03 1.920E+07
 ETOT  6   747.35282741929     -1.198E-01 1.963E-04 1.780E+07
 ETOT  7   746.24437582432     -1.108E+00 6.309E-04 1.447E+07
 ETOT  8   753.33928719348      7.095E+00 1.012E-01 4.676E+08
 ETOT  9   760.30678680518      6.967E+00 3.409E-02 8.303E+08
 ETOT 10   747.29367998207     -1.301E+01 7.784E-02 6.240E+07
 ETOT 11   741.29946069827     -5.994E+00 3.794E-02 7.320E+05
 ETOT 12   741.59873767700      2.993E-01 1.096E-02 4.858E+05
 ETOT 13   741.77995334223      1.812E-01 3.411E-03 1.869E+05
 ETOT 14   741.48369934082     -2.963E-01 1.079E-02 4.785E+04
 ETOT 15   740.90007293006     -5.836E-01 2.700E-03 2.169E+04
 ETOT 16   740.88608005237     -1.399E-02 6.456E-04 1.283E+04
 ETOT 17   740.89002700740      3.947E-03 3.063E-04 4.157E+03
 ETOT 18   740.86815863022     -2.187E-02 3.872E-04 1.884E+03
 ETOT 19   740.82335147072     -4.481E-02 1.961E-04 1.448E+03
 ETOT 20   740.81367055773     -9.681E-03 1.420E-05 1.157E+03
 ETOT 21   740.81359316195     -7.740E-05 9.936E-06 1.187E+03

 At SCF step   21   max residual=  9.94E-06 < tolwfr=  1.00E-05 =>converged.

 ----iterations are completed or convergence reached----

 Mean square residual over all n,k,spin=   7.2824E-06; max=  9.9356E-06

 Thirteen components of 2nd-order total energy (hartree) are
 1,2,3: 0th-order hamiltonian combined with 1st-order wavefunctions
     kin0=   2.01471061E+03 eigvalue=   1.93062799E+02  local=  -1.88239675E+03
 4,5,6: 1st-order hamiltonian combined with 1st and 0th-order wfs
 loc psp =  -8.50607512E-01  Hartree=   1.19054290E+02     xc=  -6.25003209E+01
 note that "loc psp" includes a xc core correction that could be resolved
 7,8,9: eventually, occupation + non-local contributions
    edocc=   6.12571717E+00     enl0=   1.13990479E+03   enl1=  -3.05482428E+03
 1-9 gives the relaxation energy (to be shifted if some occ is /=2.0)
   erelax=  -1.52771376E+03
 10,11,12 Non-relaxation  contributions : frozen-wavefunctions and Ewald
 fr.local=  -5.74234861E+02 fr.nonlo=   1.89073998E+03  Ewald=   9.52022236E+02
 13,14 Frozen wf xc core corrections (1) and (2)
 frxc 1  =   0.00000000E+00  frxc 2 =   0.00000000E+00
 Resulting in :
 2DEtotal=    0.7408135932E+03 Ha. Also 2DEtotal=    0.201585630522E+05 eV
    (2DErelax=   -1.5277137575E+03 Ha. 2DEnonrelax=    2.2685273506E+03 Ha)
    (  non-var. 2DEtotal :    7.4068990653E+02 Ha)

[...]

 Perturbation wavevector (in red.coord.)   0.000000  0.000000  0.000000
 Perturbation : displacement of atom   2   along direction   2
 Found     2 symmetries that leave the perturbation invariant.
 symkpt : not enough symmetry to change the number of k points.

[...]

 Perturbation wavevector (in red.coord.)   0.000000  0.000000  0.000000
 Perturbation : displacement of atom   2   along direction   3
 The set of symmetries contains only one element for this perturbation.
 symkpt : not enough symmetry to change the number of k points.

-inwffil : will read wavefunctions from disk file dynmi_WFK

 Initialisation of the first-order wave-functions :
  ireadwf=   0

     iter   2DEtotal(Ha)        deltaE(Ha) residm    vres2
-ETOT  1  -596.35187973374     -1.730E+04 5.057E+01 1.935E+09
 ETOT  2  -3693.4489588514     -3.097E+03 3.814E+00 5.487E+08
 ETOT  3  -3928.9379114089     -2.355E+02 5.487E-01 1.067E+07
 ETOT  4  -3965.3703026196     -3.643E+01 1.370E-01 1.091E+07
 ETOT  5  -3987.7315334497     -2.236E+01 9.316E-02 9.996E+06
 ETOT  6  -4011.0386224692     -2.331E+01 1.241E-01 5.424E+06
 ETOT  7  -4029.8139277287     -1.878E+01 2.299E-01 1.668E+06
 ETOT  8  -4031.3828777534     -1.569E+00 2.298E-02 1.236E+06
 ETOT  9  -4033.3158015796     -1.933E+00 2.253E-02 6.604E+05
 ETOT 10  -4034.0348995175     -7.191E-01 6.409E-03 5.160E+05
 ETOT 11  -4034.3686939991     -3.338E-01 4.843E-03 3.454E+05
 ETOT 12  -4034.8397017433     -4.710E-01 7.200E-03 2.002E+05
 ETOT 13  -4035.4730943128     -6.334E-01 9.473E-03 1.428E+05
 ETOT 14  -4035.8264484383     -3.534E-01 1.693E-02 5.407E+04
 ETOT 15  -4035.8678880353     -4.144E-02 2.258E-03 8.425E+03
 ETOT 16  -4035.8686984132     -8.104E-04 3.198E-04 1.935E+03
 ETOT 17  -4035.8820300943     -1.333E-02 5.191E-04 1.820E+02
 ETOT 18  -4035.8792730030      2.757E-03 1.250E-04 1.303E+03
 ETOT 19  -4035.8795438823     -2.709E-04 9.482E-06 1.267E+03

 At SCF step   19   max residual=  9.48E-06 < tolwfr=  1.00E-05 =>converged.

 ----iterations are completed or convergence reached----

 Mean square residual over all n,k,spin=   5.6145E-06; max=  9.4817E-06

 Thirteen components of 2nd-order total energy (hartree) are
 1,2,3: 0th-order hamiltonian combined with 1st-order wavefunctions
     kin0=   3.01329966E+04 eigvalue=   2.99586742E+03  local=  -2.48116361E+04
 4,5,6: 1st-order hamiltonian combined with 1st and 0th-order wfs
 loc psp =  -4.63839877E+03  Hartree=   4.11150493E+03     xc=  -2.78450593E+03
 note that "loc psp" includes a xc core correction that could be resolved
 7,8,9: eventually, occupation + non-local contributions
    edocc=   7.56671994E+02     enl0=   1.03393594E+04   enl1=  -3.68405237E+04
 1-9 gives the relaxation energy (to be shifted if some occ is /=2.0)
   erelax=  -2.07386641E+04
 10,11,12 Non-relaxation  contributions : frozen-wavefunctions and Ewald
 fr.local=   1.17569731E+04 fr.nonlo=   1.60077692E+04  Ewald=  -1.10619577E+04
 13,14 Frozen wf xc core corrections (1) and (2)
 frxc 1  =   0.00000000E+00  frxc 2 =   0.00000000E+00
 Resulting in :
 2DEtotal=   -0.4035879544E+04 Ha. Also 2DEtotal=   -0.109821867481E+06 eV
    (2DErelax=   -2.0738664133E+04 Ha. 2DEnonrelax=    1.6702784589E+04 Ha)
    (  non-var. 2DEtotal :   -4.0366766422E+03 Ha)

 ---- first-order wavefunction calculations are completed ----

 ==> Compute Derivative Database <==

  2nd-order matrix (non-cartesian coordinates, masses not included,
   asr not included )
     j1       j2             matrix element
  dir pert dir pert     real part     imaginary part

   1    1   1    1       740.6899065332         0.0000000000
   1    1   2    1       861.8834878171         0.0000000000
   1    1   3    1        -0.0000000000         0.0000000000
   1    1   1    2         4.9633634538        -0.0000000000
   1    1   2    2         5.7438252393         0.0000000000
   1    1   3    2        -0.0000000000         0.0000000000
   1    1   1    3        -1.8880026588        -0.0000000000
   1    1   2    3        19.1309564028        -0.0000000000
   1    1   3    3         0.0000000000        -0.0000000000
   1    1   1    4        -2.5423297970        -0.0000000000
   1    1   2    4         2.6694974254        -0.0000000000
   1    1   3    4        -0.0000000000         0.0000000000
   1    1   1    5         9.9073586665         0.0000000000
   1    1   2    5        -8.0753935583        -0.0000000000
   1    1   3    5        -0.0000000000        -0.0000000000
   1    1   1    6       -16.1151960142         0.0000000000
   1    1   2    6       -12.4666067183         0.0000000000
   1    1   3    6         0.0000000000        -0.0000000000
   1    1   1    7         9.0870284214        -0.0000000000
   1    1   2    7         6.5450794373        -0.0000000000
   1    1   3    7         0.0000000000        -0.0000000000
   1    1   1    8      -718.4113915539         0.0000000000
   1    1   2    8      -857.9478841847        -0.0000000000
   1    1   3    8        -0.0000000000         0.0000000000
   1    1   3   10         0.0000000000         0.0000000000

[...]

  Dynamical matrix, in cartesian coordinates,
   if specified in the inputs, asr has been imposed
     j1       j2             matrix element
  dir pert dir pert     real part    imaginary part

[...]

   3    8   1    1        -0.0000000000        -0.0000000000
   3    8   2    1         0.0000000000         0.0000000000
   3    8   3    1         3.1279569949         0.0000000000
   3    8   1    2         0.0000000000        -0.0000000000
   3    8   2    2         0.0000000000         0.0000000000
   3    8   3    2         3.5109376332         0.0000000000
   3    8   1    3         0.0000000000         0.0000000000
   3    8   2    3         0.0000000000        -0.0000000000
   3    8   3    3         3.5109376332         0.0000000000
   3    8   1    4        -0.0000000000         0.0000000000
   3    8   2    4         0.0000000000        -0.0000000000
   3    8   1    5         0.0000000000        -0.0000000000
   3    8   2    5        -0.0000000000        -0.0000000000
   3    8   1    6        -0.0000000000        -0.0000000000
   3    8   2    6         0.0000000000         0.0000000000
   3    8   1    7         0.0000000000         0.0000000000
   3    8   2    7         0.0000000000        -0.0000000000
   3    8   1    8         0.0000000000         0.0000000000
   3    8   2    8        -0.0000000000         0.0000000000

  Phonon wavevector (reduced coordinates) :  0.00000  0.00000  0.00000
 Phonon energies in Hartree :
  -1.994087E-02 -1.688828E-02 -1.225845E-02 -1.198430E-02  0.000000E+00
   0.000000E+00  0.000000E+00  0.000000E+00  0.000000E+00  0.000000E+00
   0.000000E+00  0.000000E+00  0.000000E+00  0.000000E+00  0.000000E+00
   0.000000E+00  0.000000E+00  0.000000E+00  0.000000E+00  8.426583E-03
   1.356774E-02  2.505411E-02  2.999032E-02  3.053606E-02
 Phonon frequencies in cm-1    :
- -4.376516E+03 -3.706548E+03 -2.690419E+03 -2.630249E+03  0.000000E+00
-  0.000000E+00  0.000000E+00  0.000000E+00  0.000000E+00  0.000000E+00
-  0.000000E+00  0.000000E+00  0.000000E+00  0.000000E+00  0.000000E+00
-  0.000000E+00  0.000000E+00  0.000000E+00  0.000000E+00  1.849421E+03
-  2.977775E+03  5.498741E+03  6.582115E+03  6.701891E+03
 chkph3 : WARNING -
  The dynamical matrix was incomplete : phonon frequencies may be wrong ...

== END DATASET(S) ==============================================================

 -outvars: echo values of variables after computation  --------
            acell      1.8897261250E+00  1.8897261250E+00  1.8897261250E+00 Bohr
              amu      1.08110000E+01  1.20110000E+01  1.40067400E+01
             ecut      5.00000000E+01 Hartree
           etotal     -4.0358795439E+03
            fcart      0.0000000000E+00  0.0000000000E+00  0.0000000000E+00
                       0.0000000000E+00  0.0000000000E+00  0.0000000000E+00
                       0.0000000000E+00  0.0000000000E+00  0.0000000000E+00
                       0.0000000000E+00  0.0000000000E+00  0.0000000000E+00
                       0.0000000000E+00  0.0000000000E+00  0.0000000000E+00
                       0.0000000000E+00  0.0000000000E+00  0.0000000000E+00
                       0.0000000000E+00  0.0000000000E+00  0.0000000000E+00
                       0.0000000000E+00  0.0000000000E+00  0.0000000000E+00
-          fftalg         112
           irdwfk           1
           istwfk        1
              ixc          11
           kptopt           2
         kptrlatt        1    0    0      0    1    0      0    0    1
          kptrlen      9.29560873E+00
P           mkmem           1
P          mkqmem           1
P          mk1mem           1
            natom           8
            nband          17
            ngfft          60      60     150
             nkpt           1
             nqpt           1
            nstep        1000
             nsym           4
           ntypat           3
              occ      2.000000  2.000000  2.000000  2.000000  2.000000  2.000000
                       2.000000  2.000000  2.000000  2.000000  2.000000  2.000000
                       2.000000  2.000000  2.000000  2.000000  0.000000
        optdriver           1
          rfatpol           1       2
            rfdir           1       1       1
           rfphon           1
            rprim      4.9190243000E+00  0.0000000000E+00  0.0000000000E+00
                       2.4595121500E+00  4.2600000056E+00  0.0000000000E+00
                       0.0000000000E+00  0.0000000000E+00  1.2297560730E+01
          spgroup          38
           strten      0.0000000000E+00  0.0000000000E+00  0.0000000000E+00
                       0.0000000000E+00  0.0000000000E+00  0.0000000000E+00
           symrel      1  0  0   0  1  0   0  0  1       0  1  0   1  0  0   0  0 -1
                       1  0  0   0  1  0   0  0 -1       0  1  0   1  0  0   0  0  1
           tolwfr      1.00000000E-05
            typat      1  2  2  2  2  2  2  3
           xangst      6.1487803493E-01  3.5499999899E-01  0.0000000000E+00
                       1.2297560699E+00  1.4199999959E+00  0.0000000000E+00
                       1.8446341048E+00  3.5499999899E-01  0.0000000000E+00
                       1.8446341048E+00  1.7749999949E+00  0.0000000000E+00
                       2.4595121397E+00  7.0999999797E-01  0.0000000000E+00
                       2.4595121397E+00  1.4199999959E+00  0.0000000000E+00
                       3.0743901747E+00  1.7749999949E+00  0.0000000000E+00
                       1.2297560699E+00  7.0999999797E-01  0.0000000000E+00
            xcart      1.1619510911E+00  6.7085277526E-01  0.0000000000E+00
                       2.3239021823E+00  2.6834111010E+00  0.0000000000E+00
                       3.4858532734E+00  6.7085277526E-01  0.0000000000E+00
                       3.4858532734E+00  3.3542638763E+00  0.0000000000E+00
                       4.6478043646E+00  1.3417055505E+00  0.0000000000E+00
                       4.6478043646E+00  2.6834111010E+00  0.0000000000E+00
                       5.8097554557E+00  3.3542638763E+00  0.0000000000E+00
                       2.3239021823E+00  1.3417055505E+00  0.0000000000E+00
             xred      8.3333333333E-02  8.3333333333E-02  0.0000000000E+00
                       8.3333333333E-02  3.3333333333E-01  0.0000000000E+00
                       3.3333333333E-01  8.3333333333E-02  0.0000000000E+00
                       1.6666666667E-01  4.1666666667E-01  0.0000000000E+00
                       4.1666666667E-01  1.6666666667E-01  0.0000000000E+00
                       3.3333333333E-01  3.3333333333E-01  0.0000000000E+00
                       4.1666666667E-01  4.1666666667E-01  0.0000000000E+00
                       1.6666666667E-01  1.6666666667E-01  0.0000000000E+00
            znucl        5.00000    6.00000    7.00000

- Timing analysis has been suppressed with timopt=0

 Suggested references for the acknowledgment of ABINIT usage.

 Calculation completed.
.Delivered  19 WARNINGs and   4 COMMENTs to log file.